COMUNI = {
	umbertide,
	magione,
	perugia,
	assisi,
	bastia_umbra,
	gubbio,
	narni,
	marsciano,
	spoleto,
	terni,
	todi,
	corciano,
	amelia,
	gualdo_tardino,
	orvieto,
	citta_di_castello,
	castiglione_del_lago,
	foligno,
	san_giustino,
};

NUMERO_COMUNI = 19;

ABITANTI_PER_COMUNE = [16, 14, 161, 27, 21, 30, 17, 18, 36, 106, 15, 21, 11, 14, 19, 38, 15, 55, 11];

STRADE_TRA_COMUNI = [|
	false, false, true, false, false, true, false, false, false, false, false, false, false, false, false, true, false, false, false |
	false, false, false, false, false, false, false, false, false, false, false, true, false, false, false, false, true, false, false |
	true, false, false, false, true, false, false, true, false, false, false, true, false, false, false, false, false, false, false |
	false, false, false, false, true, false, false, false, false, false, false, false, false, false, false, false, false, true, false |
	false, false, true, true, false, false, false, false, false, false, false, false, false, false, false, false, false, false, false |
	true, false, false, false, false, false, false, false, false, false, false, false, false, true, false, false, false, false, false |
	false, false, false, false, false, false, false, false, false, true, false, false, true, false, false, false, false, false, false |
	false, false, true, false, false, false, false, false, false, false, true, false, false, false, false, false, false, false, false |
	false, false, false, false, false, false, false, false, false, true, false, false, false, false, false, false, false, false, false |
	false, false, false, false, false, false, true, false, true, false, false, false, false, false, false, false, false, false, false |
	false, false, false, false, false, false, false, true, false, false, false, false, true, false, true, false, false, false, false |
	false, true, true, false, false, false, false, false, false, false, false, false, false, false, false, false, false, false, false |
	false, false, false, false, false, false, true, false, false, false, true, false, false, false, false, false, false, false, false |
	false, false, false, false, false, true, false, false, false, false, false, false, false, false, false, false, false, false, false |
	false, false, false, false, false, false, false, false, false, false, true, false, false, false, false, false, false, false, false |
	true, false, false, false, false, false, false, false, false, false, false, false, false, false, false, false, false, false, true |
	false, true, false, false, false, false, false, false, false, false, false, false, false, false, false, false, false, false, false |
	false, false, false, true, false, false, false, false, false, false, false, false, false, false, false, false, false, false, false |
	false, false, false, false, false, false, false, false, false, false, false, false, false, false, false, true, false, false, false |
|];

RICHIESTE = [|
	9, 161, 127, 126, 70 |
	32, 3, 28, 92, 197 |
	307, 76, 98, 0, 37 |
	7, 1, 443, 185, 280 |
	51, 55, 19, 14, 54 |
	29, 209, 22, 41, 11 |
	52, 130, 23, 510, 63 |
	8, 35, 15, 12, 72 |
	28, 123, 28, 32, 128 |
	48, 361, 9, 107, 2 |
	36, 88, 33, 14, 23 |
	77, 184, 127, 84, 149 |
	163, 60, 214, 180, 244 |
	38, 162, 33, 70, 7 |
	92, 40, 22, 49, 6 |
	83, 190, 483, 1, 204 |
	56, 20, 358, 48, 197 |
	244, 171, 59, 343, 5 |
	133, 58, 22, 312, 201 |
|];
